# Solution for model r5_t27_m6_4 Batch Number: 3
# Finished Task: 26 / 27
# Makespan: 553.0, Total Distance: 503.0, Total Time: 1.1972
# R O S F Batch
0 0 8 0.0 0.0 -1
1 1 20 0.0 0.0 -1
2 2 11 0.0 0.0 -1
3 3 16 0.0 0.0 -1
4 4 26 0.0 0.0 -1
5 1 -1 382.0 402.0 1
6 0 14 227.0 250.0 0
7 0 6 185.0 214.0 0
8 0 7 34.0 66.0 0
9 2 19 488.0 509.0 2
10 0 23 330.0 365.0 2
11 2 12 292.0 318.0 0
12 2 31 367.0 399.0 1
13 1 5 350.0 382.0 1
14 0 10 264.0 298.0 0
15 4 18 456.0 492.0 2
16 3 21 122.0 160.0 0
17 4 29 382.0 404.0 1
18 4 -1 532.0 553.0 2
19 2 -1 531.0 553.0 2
20 1 22 272.0 300.0 0
21 3 24 172.0 197.0 0
22 1 13 315.0 340.0 0
23 0 -1 386.0 418.0 2
24 3 25 250.0 282.0 0
25 3 28 306.0 340.0 0
26 4 17 28.0 54.0 0
27 -1 -1 -1.0 -1.0 2
28 3 30 394.0 418.0 1
29 4 15 413.0 433.0 1
30 3 -1 524.0 553.0 2
31 2 9 458.0 478.0 2
